p cnf 213 2413
1 2 3 4 5 6 7 8 9 10 11 12 13 14 15 0
16 17 18 19 20 21 22 23 24 25 26 27 28 29 30 0
31 32 33 34 35 36 37 38 39 40 41 42 43 44 45 0
46 47 48 49 50 51 52 53 54 55 56 57 58 59 60 0
61 62 63 64 65 66 67 68 69 70 71 72 73 74 75 0
76 77 78 79 80 81 82 83 84 0
85 86 87 88 89 90 91 92 93 94 95 96 97 98 99 0
100 101 102 103 104 105 106 107 108 109 110 111 112 113 114 0
115 116 117 118 119 120 121 122 123 124 125 126 127 128 129 0
130 131 132 133 134 135 136 137 138 139 140 141 142 143 144 0
145 146 147 148 149 150 151 152 153 154 155 156 157 158 159 0
160 161 162 163 164 165 166 167 168 169 170 171 172 173 174 0
175 176 177 178 179 180 181 182 183 184 185 186 187 188 189 0
190 191 192 193 194 195 196 197 198 199 200 201 202 203 204 0
205 206 207 208 209 210 211 212 213 0
-12 -34 0
-69 -12 0
-12 -99 0
-116 -12 0
-12 -142 0
-12 -159 0
-12 -165 0
-179 -12 0
-192 -12 0
-69 -34 0
-99 -34 0
-116 -34 0
-34 -142 0
-34 -159 0
-165 -34 0
-179 -34 0
-192 -34 0
-99 -69 0
-69 -116 0
-69 -142 0
-69 -159 0
-69 -165 0
-179 -69 0
-69 -192 0
-99 -116 0
-99 -142 0
-99 -159 0
-99 -165 0
-99 -179 0
-99 -192 0
-116 -142 0
-116 -159 0
-116 -165 0
-179 -116 0
-192 -116 0
-159 -142 0
-165 -142 0
-179 -142 0
-192 -142 0
-159 -165 0
-179 -159 0
-192 -159 0
-179 -165 0
-192 -165 0
-179 -192 0
-11 -35 0
-61 -11 0
-11 -95 0
-115 -11 0
-11 -145 0
-11 -173 0
-11 -176 0
-191 -11 0
-61 -35 0
-35 -95 0
-115 -35 0
-35 -145 0
-35 -173 0
-176 -35 0
-191 -35 0
-95 -61 0
-115 -61 0
-61 -145 0
-61 -173 0
-61 -176 0
-191 -61 0
-95 -115 0
-95 -145 0
-95 -173 0
-95 -176 0
-95 -191 0
-115 -145 0
-115 -173 0
-115 -176 0
-191 -115 0
-173 -145 0
-176 -145 0
-191 -145 0
-176 -173 0
-191 -173 0
-191 -176 0
-38 -10 0
-10 -72 0
-10 -93 0
-10 -125 0
-10 -141 0
-10 -146 0
-10 -167 0
-175 -10 0
-190 -10 0
-38 -72 0
-38 -93 0
-38 -125 0
-38 -141 0
-38 -146 0
-38 -167 0
-38 -175 0
-38 -190 0
-72 -93 0
-72 -125 0
-72 -141 0
-72 -146 0
-167 -72 0
-72 -175 0
-72 -190 0
-125 -93 0
-93 -141 0
-146 -93 0
-93 -167 0
-175 -93 0
-190 -93 0
-125 -141 0
-125 -146 0
-125 -167 0
-125 -175 0
-125 -190 0
-146 -141 0
-167 -141 0
-175 -141 0
-190 -141 0
-167 -146 0
-175 -146 0
-190 -146 0
-167 -175 0
-190 -167 0
-190 -175 0
-39 -2 0
-74 -2 0
-2 -88 0
-126 -2 0
-2 -143 0
-158 -2 0
-2 -174 0
-182 -2 0
-194 -2 0
-39 -74 0
-39 -88 0
-39 -126 0
-39 -143 0
-39 -158 0
-39 -174 0
-39 -182 0
-39 -194 0
-74 -88 0
-126 -74 0
-74 -143 0
-74 -158 0
-74 -174 0
-74 -182 0
-74 -194 0
-126 -88 0
-143 -88 0
-158 -88 0
-174 -88 0
-182 -88 0
-194 -88 0
-126 -143 0
-126 -158 0
-126 -174 0
-126 -182 0
-126 -194 0
-158 -143 0
-174 -143 0
-182 -143 0
-194 -143 0
-174 -158 0
-182 -158 0
-194 -158 0
-182 -174 0
-194 -174 0
-194 -182 0
-43 -4 0
-4 -46 0
-66 -4 0
-4 -77 0
-97 -4 0
-4 -100 0
-124 -4 0
-152 -4 0
-4 -170 0
-186 -4 0
-197 -4 0
-4 -210 0
-43 -46 0
-43 -66 0
-43 -77 0
-97 -43 0
-100 -43 0
-43 -124 0
-43 -152 0
-43 -170 0
-43 -186 0
-43 -197 0
-43 -210 0
-66 -46 0
-46 -77 0
-97 -46 0
-100 -46 0
-124 -46 0
-152 -46 0
-170 -46 0
-186 -46 0
-197 -46 0
-210 -46 0
-66 -77 0
-66 -97 0
-66 -100 0
-124 -66 0
-66 -152 0
-66 -170 0
-66 -186 0
-197 -66 0
-66 -210 0
-97 -77 0
-100 -77 0
-124 -77 0
-152 -77 0
-170 -77 0
-186 -77 0
-197 -77 0
-210 -77 0
-97 -100 0
-97 -124 0
-97 -152 0
-97 -170 0
-97 -186 0
-97 -197 0
-97 -210 0
-124 -100 0
-152 -100 0
-170 -100 0
-186 -100 0
-197 -100 0
-100 -210 0
-124 -152 0
-124 -170 0
-124 -186 0
-197 -124 0
-124 -210 0
-152 -170 0
-186 -152 0
-197 -152 0
-152 -210 0
-186 -170 0
-197 -170 0
-170 -210 0
-186 -197 0
-186 -210 0
-197 -210 0
-13 -44 0
-65 -13 0
-13 -98 0
-13 -119 0
-13 -131 0
-13 -153 0
-13 -180 0
-13 -203 0
-44 -65 0
-44 -98 0
-119 -44 0
-44 -131 0
-44 -153 0
-44 -180 0
-44 -203 0
-65 -98 0
-65 -119 0
-65 -131 0
-65 -153 0
-65 -180 0
-203 -65 0
-119 -98 0
-131 -98 0
-153 -98 0
-180 -98 0
-203 -98 0
-119 -131 0
-119 -153 0
-180 -119 0
-203 -119 0
-153 -131 0
-180 -131 0
-203 -131 0
-180 -153 0
-203 -153 0
-203 -180 0
-41 -7 0
-73 -7 0
-7 -91 0
-118 -7 0
-7 -140 0
-156 -7 0
-7 -169 0
-181 -7 0
-196 -7 0
-73 -41 0
-41 -91 0
-41 -118 0
-41 -140 0
-41 -156 0
-41 -169 0
-41 -181 0
-41 -196 0
-73 -91 0
-118 -73 0
-73 -140 0
-73 -156 0
-73 -169 0
-73 -181 0
-196 -73 0
-118 -91 0
-91 -140 0
-91 -156 0
-91 -169 0
-181 -91 0
-196 -91 0
-118 -140 0
-118 -156 0
-118 -169 0
-118 -181 0
-196 -118 0
-156 -140 0
-169 -140 0
-181 -140 0
-196 -140 0
-156 -169 0
-181 -156 0
-196 -156 0
-181 -169 0
-196 -169 0
-196 -181 0
-6 -17 0
-6 -32 0
-71 -6 0
-6 -94 0
-6 -101 0
-128 -6 0
-6 -150 0
-6 -168 0
-183 -6 0
-195 -6 0
-6 -209 0
-17 -32 0
-71 -17 0
-94 -17 0
-17 -101 0
-128 -17 0
-150 -17 0
-168 -17 0
-183 -17 0
-195 -17 0
-209 -17 0
-71 -32 0
-94 -32 0
-32 -101 0
-128 -32 0
-150 -32 0
-168 -32 0
-183 -32 0
-195 -32 0
-209 -32 0
-71 -94 0
-71 -101 0
-128 -71 0
-71 -150 0
-71 -168 0
-183 -71 0
-195 -71 0
-71 -209 0
-94 -101 0
-94 -128 0
-94 -150 0
-94 -168 0
-94 -183 0
-195 -94 0
-94 -209 0
-128 -101 0
-150 -101 0
-168 -101 0
-183 -101 0
-195 -101 0
-209 -101 0
-128 -150 0
-128 -168 0
-183 -128 0
-195 -128 0
-128 -209 0
-150 -168 0
-183 -150 0
-195 -150 0
-150 -209 0
-183 -168 0
-195 -168 0
-209 -168 0
-183 -195 0
-183 -209 0
-195 -209 0
-14 -29 0
-14 -42 0
-14 -47 0
-14 -63 0
-14 -82 0
-14 -85 0
-14 -120 0
-14 -155 0
-14 -171 0
-14 -184 0
-14 -204 0
-14 -213 0
-42 -29 0
-29 -47 0
-63 -29 0
-29 -82 0
-29 -85 0
-120 -29 0
-155 -29 0
-171 -29 0
-184 -29 0
-204 -29 0
-213 -29 0
-42 -47 0
-63 -42 0
-42 -82 0
-42 -85 0
-42 -120 0
-42 -155 0
-42 -171 0
-42 -184 0
-42 -204 0
-42 -213 0
-63 -47 0
-47 -82 0
-47 -85 0
-120 -47 0
-155 -47 0
-171 -47 0
-184 -47 0
-204 -47 0
-213 -47 0
-63 -82 0
-63 -85 0
-63 -120 0
-63 -155 0
-63 -171 0
-63 -184 0
-204 -63 0
-63 -213 0
-82 -85 0
-120 -82 0
-155 -82 0
-171 -82 0
-184 -82 0
-204 -82 0
-213 -82 0
-120 -85 0
-155 -85 0
-171 -85 0
-184 -85 0
-204 -85 0
-213 -85 0
-120 -155 0
-120 -171 0
-184 -120 0
-204 -120 0
-120 -213 0
-171 -155 0
-184 -155 0
-204 -155 0
-155 -213 0
-184 -171 0
-204 -171 0
-171 -213 0
-184 -204 0
-184 -213 0
-204 -213 0
-16 -9 0
-9 -36 0
-67 -9 0
-9 -81 0
-9 -96 0
-129 -9 0
-9 -151 0
-9 -164 0
-189 -9 0
-199 -9 0
-9 -205 0
-36 -16 0
-67 -16 0
-81 -16 0
-96 -16 0
-129 -16 0
-151 -16 0
-16 -164 0
-189 -16 0
-199 -16 0
-205 -16 0
-36 -67 0
-36 -81 0
-96 -36 0
-36 -129 0
-36 -151 0
-36 -164 0
-36 -189 0
-36 -199 0
-36 -205 0
-67 -81 0
-96 -67 0
-129 -67 0
-67 -151 0
-67 -164 0
-67 -189 0
-199 -67 0
-67 -205 0
-96 -81 0
-129 -81 0
-151 -81 0
-81 -164 0
-189 -81 0
-199 -81 0
-205 -81 0
-96 -129 0
-96 -151 0
-96 -164 0
-96 -189 0
-199 -96 0
-96 -205 0
-129 -151 0
-129 -164 0
-189 -129 0
-199 -129 0
-129 -205 0
-151 -164 0
-189 -151 0
-199 -151 0
-151 -205 0
-189 -164 0
-199 -164 0
-205 -164 0
-189 -199 0
-189 -205 0
-199 -205 0
-15 -45 0
-15 -51 0
-68 -15 0
-15 -80 0
-15 -89 0
-117 -15 0
-149 -15 0
-15 -160 0
-15 -187 0
-15 -200 0
-15 -211 0
-45 -51 0
-45 -68 0
-45 -80 0
-89 -45 0
-45 -117 0
-45 -149 0
-45 -160 0
-45 -187 0
-45 -200 0
-45 -211 0
-68 -51 0
-80 -51 0
-89 -51 0
-117 -51 0
-149 -51 0
-51 -160 0
-187 -51 0
-200 -51 0
-51 -211 0
-68 -80 0
-68 -89 0
-117 -68 0
-68 -149 0
-68 -160 0
-68 -187 0
-68 -200 0
-68 -211 0
-89 -80 0
-117 -80 0
-149 -80 0
-80 -160 0
-187 -80 0
-200 -80 0
-80 -211 0
-89 -117 0
-149 -89 0
-89 -160 0
-187 -89 0
-200 -89 0
-89 -211 0
-117 -149 0
-117 -160 0
-187 -117 0
-117 -200 0
-117 -211 0
-149 -160 0
-187 -149 0
-200 -149 0
-149 -211 0
-187 -160 0
-200 -160 0
-211 -160 0
-187 -200 0
-187 -211 0
-200 -211 0
-8 -31 0
-8 -53 0
-64 -8 0
-8 -90 0
-121 -8 0
-8 -154 0
-8 -163 0
-188 -8 0
-201 -8 0
-8 -212 0
-53 -31 0
-64 -31 0
-90 -31 0
-121 -31 0
-154 -31 0
-163 -31 0
-188 -31 0
-201 -31 0
-212 -31 0
-64 -53 0
-90 -53 0
-121 -53 0
-154 -53 0
-163 -53 0
-188 -53 0
-201 -53 0
-212 -53 0
-64 -90 0
-121 -64 0
-64 -154 0
-64 -163 0
-64 -188 0
-201 -64 0
-64 -212 0
-121 -90 0
-154 -90 0
-90 -163 0
-188 -90 0
-201 -90 0
-212 -90 0
-121 -154 0
-121 -163 0
-188 -121 0
-121 -201 0
-121 -212 0
-154 -163 0
-188 -154 0
-201 -154 0
-154 -212 0
-188 -163 0
-201 -163 0
-212 -163 0
-188 -201 0
-188 -212 0
-201 -212 0
-3 -37 0
-70 -3 0
-3 -76 0
-3 -86 0
-127 -3 0
-3 -148 0
-3 -161 0
-185 -3 0
-202 -3 0
-3 -206 0
-70 -37 0
-37 -76 0
-37 -86 0
-127 -37 0
-37 -148 0
-161 -37 0
-37 -185 0
-202 -37 0
-37 -206 0
-70 -76 0
-70 -86 0
-70 -127 0
-70 -148 0
-70 -161 0
-185 -70 0
-70 -202 0
-70 -206 0
-86 -76 0
-127 -76 0
-148 -76 0
-161 -76 0
-185 -76 0
-202 -76 0
-206 -76 0
-127 -86 0
-148 -86 0
-161 -86 0
-185 -86 0
-202 -86 0
-206 -86 0
-127 -148 0
-127 -161 0
-127 -185 0
-202 -127 0
-127 -206 0
-148 -161 0
-185 -148 0
-202 -148 0
-148 -206 0
-185 -161 0
-202 -161 0
-206 -161 0
-185 -202 0
-185 -206 0
-202 -206 0
-40 -1 0
-62 -1 0
-1 -92 0
-122 -1 0
-1 -130 0
-157 -1 0
-172 -1 0
-178 -1 0
-40 -62 0
-40 -92 0
-40 -122 0
-40 -130 0
-40 -157 0
-40 -172 0
-40 -178 0
-62 -92 0
-122 -62 0
-62 -130 0
-62 -157 0
-62 -172 0
-62 -178 0
-122 -92 0
-92 -130 0
-157 -92 0
-92 -172 0
-178 -92 0
-122 -130 0
-122 -157 0
-122 -172 0
-122 -178 0
-157 -130 0
-172 -130 0
-178 -130 0
-172 -157 0
-178 -157 0
-172 -178 0
-173 -146 0
-167 -17 0
-94 -4 0
-121 -67 0
-172 -153 0
-186 -69 0
-37 -46 0
-142 -17 0
-119 -178 0
-201 -63 0
-89 -164 0
-95 -158 0
-186 -165 0
-185 -129 0
-17 -88 0
-117 -8 0
-129 -10 0
-146 -98 0
-99 -115 0
-151 -213 0
-195 -169 0
-40 -120 0
-98 -81 0
-156 -88 0
-45 -210 0
-37 -81 0
-32 -46 0
-39 -164 0
-191 -88 0
-44 -117 0
-36 -101 0
-152 -169 0
-15 -176 0
-39 -170 0
-185 -160 0
-93 -16 0
-149 -82 0
-183 -160 0
-6 -82 0
-171 -148 0
-95 -160 0
-37 -120 0
-165 -101 0
-66 -47 0
-156 -3 0
-189 -120 0
-92 -205 0
-148 -169 0
-128 -90 0
-44 -76 0
-129 -11 0
-98 -156 0
-45 -101 0
-159 -82 0
-209 -141 0
-186 -85 0
-187 -4 0
-120 -32 0
-179 -120 0
-200 -1 0
-96 -51 0
-203 -82 0
-42 -92 0
-185 -169 0
-199 -3 0
-96 -211 0
-92 -161 0
-71 -8 0
-178 -165 0
-200 -3 0
-42 -169 0
-74 -169 0
-121 -89 0
-200 -120 0
-167 -157 0
-195 -63 0
-181 -117 0
-8 -171 0
-172 -145 0
-203 -7 0
-169 -131 0
-129 -153 0
-39 -86 0
-145 -88 0
-95 -116 0
-150 -173 0
-169 -141 0
-35 -205 0
-89 -143 0
-169 -154 0
-99 -17 0
-152 -88 0
-202 -82 0
-34 -81 0
-158 -165 0
-187 -69 0
-163 -36 0
-17 -47 0
-62 -174 0
-32 -29 0
-186 -89 0
-172 -17 0
-129 -196 0
-158 -142 0
-209 -164 0
-189 -92 0
-140 -88 0
-96 -169 0
-96 -168 0
-3 -150 0
-184 -31 0
-98 -101 0
-89 -163 0
-181 -69 0
-91 -209 0
-89 -168 0
-129 -90 0
-95 -161 0
-118 -101 0
-94 -145 0
-92 -142 0
-92 -141 0
-195 -129 0
-11 -142 0
-95 -165 0
-38 -80 0
-37 -164 0
-167 -7 0
-99 -130 0
-88 -46 0
-209 -142 0
-174 -155 0
-44 -29 0
-43 -81 0
-94 -16 0
-91 -160 0
-89 -151 0
-32 -213 0
-185 -71 0
-42 -101 0
-158 -130 0
-40 -117 0
-95 -182 0
-154 -7 0
-39 -205 0
-189 -82 0
-95 -101 0
-38 -76 0
-98 -161 0
-11 -47 0
-8 -142 0
-180 -69 0
-93 -164 0
-36 -146 0
-95 -17 0
-185 -1 0
-42 -160 0
-38 -170 0
-188 -85 0
-15 -53 0
-12 -129 0
-36 -206 0
-98 -170 0
-183 -171 0
-44 -129 0
-97 -73 0
-42 -80 0
-181 -160 0
-181 -3 0
-181 -85 0
-44 -169 0
-145 -140 0
-184 -89 0
-181 -130 0
-92 -51 0
-37 -160 0
-41 -93 0
-38 -142 0
-12 -171 0
-38 -17 0
-82 -165 0
-91 -159 0
-117 -6 0
-94 -51 0
-43 -164 0
-172 -82 0
-179 -46 0
-120 -3 0
-116 -8 0
-45 -77 0
-13 -47 0
-38 -86 0
-43 -80 0
-95 -194 0
-154 -46 0
-12 -53 0
-39 -101 0
-178 -131 0
-96 -209 0
-129 -148 0
-180 -117 0
-184 -130 0
-62 -165 0
-178 -89 0
-29 -165 0
-36 -169 0
-6 -205 0
-45 -129 0
-36 -168 0
-40 -170 0
-38 -206 0
-119 -100 0
-73 -173 0
-94 -7 0
-189 -160 0
-200 -82 0
-173 -130 0
-188 -3 0
-10 -145 0
-174 -82 0
-180 -31 0
-99 -152 0
-43 -146 0
-7 -165 0
-203 -46 0
-197 -7 0
-51 -88 0
-63 -97 0
-44 -86 0
-96 -80 0
-171 -150 0
-17 -163 0
-150 -46 0
-36 -86 0
-71 -178 0
-99 -194 0
-187 -130 0
-44 -160 0
-16 -12 0
-181 -129 0
-99 -77 0
-81 -163 0
-8 -213 0
-188 -1 0
-157 -7 0
-61 -169 0
-95 -143 0
-94 -34 0
-45 -170 0
-151 -169 0
-34 -85 0
-165 -141 0
-146 -169 0
-141 -88 0
-91 -16 0
-156 -141 0
-171 -153 0
-96 -143 0
-14 -16 0
-183 -7 0
-178 -169 0
-202 -129 0
-13 -31 0
-36 -117 0
-7 -142 0
-10 -31 0
-36 -160 0
-153 -142 0
-40 -209 0
-36 -76 0
-37 -129 0
-185 -31 0
-45 -47 0
-204 -89 0
-204 -46 0
-187 -82 0
-173 -213 0
-93 -210 0
-115 -93 0
-89 -171 0
-15 -63 0
-89 -130 0
-38 -160 0
-98 -51 0
-6 -176 0
-69 -88 0
-45 -142 0
-43 -129 0
-91 -152 0
-129 -150 0
-181 -46 0
-157 -143 0
-185 -92 0
-152 -82 0
-42 -205 0
-43 -93 0
-167 -209 0
-98 -4 0
-38 -211 0
-145 -142 0
-41 -210 0
-42 -7 0
-129 -192 0
-199 -82 0
-44 -71 0
-44 -206 0
-91 -164 0
-185 -46 0
-40 -164 0
-7 -174 0
-201 -169 0
-15 -191 0
-153 -7 0
-97 -129 0
-96 -142 0
-189 -171 0
-12 -145 0
-150 -174 0
-91 -46 0
-174 -145 0
-117 -10 0
-98 -17 0
-37 -4 0
-37 -29 0
-39 -211 0
-129 -152 0
-179 -92 0
-128 -3 0
-192 -120 0
-179 -171 0
-96 -140 0
-39 -76 0
-63 -12 0
-182 -173 0
-40 -93 0
-209 -29 0
-89 -81 0
-37 -213 0
-170 -32 0
-201 -129 0
-174 -29 0
-118 -90 0
-185 -131 0
-213 -17 0
-93 -101 0
-186 -120 0
-120 -17 0
-115 -88 0
-92 -170 0
-14 -31 0
-156 -130 0
-89 -120 0
-171 -81 0
-8 -82 0
-41 -71 0
-37 -92 0
-41 -164 0
-36 -71 0
-191 -6 0
-39 -146 0
-41 -142 0
-171 -7 0
-40 -210 0
-41 -92 0
-93 -161 0
-34 -4 0
-180 -71 0
-204 -3 0
-14 -71 0
-11 -90 0
-150 -93 0
-8 -63 0
-45 -172 0
-13 -16 0
-36 -120 0
-151 -92 0
-40 -76 0
-185 -120 0
-176 -88 0
-199 -63 0
-89 -158 0
-183 -117 0
-15 -171 0
-42 -46 0
-165 -157 0
-92 -4 0
-74 -172 0
-8 -145 0
-45 -7 0
-38 -205 0
-211 -16 0
-93 -151 0
-35 -206 0
-172 -209 0
-93 -81 0
-13 -205 0
-202 -63 0
-213 -152 0
-179 -117 0
-11 -82 0
-174 -34 0
-89 -16 0
-171 -158 0
-36 -142 0
-45 -76 0
-65 -47 0
-12 -175 0
-173 -82 0
-42 -164 0
-65 -171 0
-44 -7 0
-172 -32 0
-9 -145 0
-181 -4 0
-190 -8 0
-119 -10 0
-89 -142 0
-45 -92 0
-35 -76 0
-185 -130 0
-194 -93 0
-140 -98 0
-173 -153 0
-129 -32 0
-117 -178 0
-187 -120 0
-213 -165 0
-94 -163 0
-89 -210 0
-189 -86 0
-73 -165 0
-172 -101 0
-183 -82 0
-153 -143 0
-43 -211 0
-15 -17 0
-188 -86 0
-71 -10 0
-99 -150 0
-10 -131 0
-145 -141 0
-151 -46 0
-98 -77 0
-94 -129 0
-129 -209 0
-172 -213 0
-199 -169 0
-91 -101 0
-97 -164 0
-16 -92 0
-35 -142 0
-89 -155 0
-1 -165 0
-13 -146 0
-164 -101 0
-95 -151 0
-63 -98 0
-40 -211 0
-202 -169 0
-7 -143 0
-95 -69 0
-97 -131 0
-88 -4 0
-93 -17 0
-12 -146 0
-89 -150 0
-42 -77 0
-37 -82 0
-93 -143 0
-153 -46 0
-167 -155 0
-99 -131 0
-13 -213 0
-88 -80 0
-32 -86 0
-44 -4 0
-188 -119 0
-188 -131 0
-65 -210 0
-183 -169 0
-96 -160 0
-185 -117 0
-41 -117 0
-195 -213 0
-99 -160 0
-34 -211 0
-89 -119 0
-203 -129 0
-43 -117 0
-187 -85 0
-99 -170 0
-180 -171 0
-14 -116 0
-35 -146 0
-91 -131 0
-157 -89 0
-38 -29 0
-43 -86 0
-194 -173 0
-179 -82 0
-167 -213 0
-131 -88 0
-201 -86 0
-167 -61 0
-94 -80 0
-185 -165 0
-38 -46 0
-179 -160 0
-13 -116 0
-38 -82 0
-189 -119 0
-29 -101 0
-35 -85 0
-145 -169 0
-95 -125 0
-6 -63 0
-93 -46 0
-179 -1 0
-71 -12 0
-12 -82 0
-150 -165 0
-167 -1 0
-178 -86 0
-126 -169 0
-96 -131 0
-154 -89 0
-188 -4 0
-94 -205 0
-186 -71 0
-189 -46 0
-96 -159 0
-88 -81 0
-92 -77 0
-159 -92 0
-93 -168 0
-184 -160 0
-7 -151 0
-178 -7 0
-199 -120 0
-126 -172 0
-39 -85 0
-165 -151 0
-95 -156 0
-173 -29 0
-95 -142 0
-40 -206 0
-186 -7 0
-197 -63 0
-167 -81 0
-180 -130 0
-183 -130 0
-172 -151 0
-40 -46 0
-201 -89 0
-39 -46 0
-183 -119 0
-181 -92 0
-167 -158 0
-151 -82 0
-43 -206 0
-32 -210 0
-89 -46 0
-159 -213 0
-145 -143 0
-201 -82 0
-169 -142 0
-40 -101 0
-202 -120 0
-89 -145 0
-173 -155 0
-176 -93 0
-42 -206 0
-92 -211 0
-71 -15 0
-36 -7 0
-45 -146 0
-37 -142 0
-39 -93 0
-98 -130 0
-36 -210 0
-44 -81 0
-200 -46 0
-40 -82 0
-165 -143 0
-117 -32 0
-11 -205 0
-165 -17 0
-40 -160 0
-188 -130 0
-180 -92 0
-190 -88 0
-96 -146 0
-92 -209 0
-155 -169 0
-183 -86 0
-188 -71 0
-36 -211 0
-73 -171 0
-125 -88 0
-45 -213 0
-37 -17 0
-7 -98 0
-99 -101 0
-181 -89 0
-167 -34 0
-44 -210 0
-38 -101 0
-97 -205 0
-157 -82 0
-95 -152 0
-165 -155 0
-169 -81 0
-44 -92 0
-118 -209 0
-43 -142 0
-184 -169 0
-7 -141 0
-36 -170 0
-8 -176 0
-93 -140 0
-184 -165 0
-159 -93 0
-204 -169 0
-131 -93 0
-65 -97 0
-211 -32 0
-14 -205 0
-71 -175 0
-44 -146 0
-165 -130 0
-180 -165 0
-13 -176 0
-12 -176 0
-41 -80 0
-157 -169 0
-129 -101 0
-163 -101 0
-178 -171 0
-97 -209 0
-146 -131 0
-99 -158 0
-121 -94 0
-188 -160 0
-91 -170 0
-157 -141 0
-43 -213 0
-150 -172 0
-191 -9 0
-8 -129 0
-10 -90 0
-197 -169 0
-35 -93 0
-95 -146 0
-77 -88 0
-12 -119 0
-88 -211 0
-67 -169 0
-42 -117 0
-159 -46 0
-167 -29 0
-92 -46 0
-9 -131 0
-183 -165 0
-97 -158 0
-167 -115 0
-126 -171 0
-73 -175 0
-13 -53 0
-200 -7 0
-43 -101 0
-37 -209 0
-180 -1 0
-13 -190 0
-209 -163 0
-72 -165 0
-37 -211 0
-99 -51 0
-94 -141 0
-91 -51 0
-9 -176 0
-185 -7 0
-195 -82 0
-173 -151 0
-187 -46 0
-179 -53 0
-42 -17 0
-197 -3 0
-186 -92 0
-185 -82 0
-189 -85 0
-178 -82 0
-43 -141 0
-45 -46 0
-39 -206 0
-146 -88 0
-34 -206 0
-34 -92 0
-41 -213 0
-1 -143 0
-89 -131 0
-41 -76 0
-187 -31 0
-34 -170 0
-129 -156 0
-98 -46 0
-146 -165 0
-169 -34 0
-37 -210 0
-169 -17 0
-171 -17 0
-129 -17 0
-98 -151 0
-188 -92 0
-171 -209 0
-189 -165 0
-174 -148 0
-37 -170 0
-14 -191 0
-32 -85 0
-173 -17 0
-189 -4 0
-94 -143 0
-187 -7 0
-188 -171 0
-150 -169 0
-14 -117 0
-97 -7 0
-94 -152 0
-197 -213 0
-188 -129 0
-37 -51 0
-32 -81 0
-34 -93 0
-93 -209 0
-173 -209 0
-95 -211 0
-88 -205 0
-129 -159 0
-191 -8 0
-93 -130 0
-89 -156 0
-199 -46 0
-119 -9 0
-169 -47 0
-98 -100 0
-9 -17 0
-149 -46 0
-185 -4 0
-95 -46 0
-126 -173 0
-99 -80 0
-91 -210 0
-43 -130 0
-14 -53 0
-8 -146 0
-183 -3 0
-67 -140 0
-174 -81 0
-91 -77 0
-159 -143 0
-189 -130 0
-130 -32 0
-12 -131 0
-129 -149 0
-85 -165 0
-35 -170 0
-93 -205 0
-36 -213 0
-99 -161 0
-44 -85 0
-96 -124 0
-200 -169 0
-72 -174 0
-40 -86 0
-187 -86 0
-189 -71 0
-95 -141 0
-90 -9 0
-153 -130 0
-172 -85 0
-91 -130 0
-99 -176 0
-146 -142 0
-91 -80 0
-42 -146 0
-171 -3 0
-174 -146 0
-93 -77 0
-195 -7 0
-197 -120 0
-14 -190 0
-116 -10 0
-151 -3 0
-190 -12 0
-44 -141 0
-15 -145 0
-91 -17 0
-169 -101 0
-201 -3 0
-42 -71 0
-92 -168 0
-118 -32 0
-181 -71 0
-15 -213 0
-92 -80 0
-94 -146 0
-180 -160 0
-173 -34 0
-93 -211 0
-72 -171 0
-98 -209 0
-32 -160 0
-89 -203 0
-201 -120 0
-184 -86 0
-15 -31 0
-38 -4 0
-187 -169 0
-116 -6 0
-71 -13 0
-192 -169 0
-95 -164 0
-94 -77 0
-40 -141 0
-43 -29 0
-176 -174 0
-157 -140 0
-11 -131 0
-99 -46 0
-180 -46 0
-183 -4 0
-157 -142 0
-42 -210 0
-73 -128 0
-91 -161 0
-95 -150 0
-174 -17 0
-42 -130 0
-169 -130 0
-44 -82 0
-81 -168 0
-96 -152 0
-184 -53 0
-99 -16 0
-69 -178 0
-44 -205 0
-14 -119 0
-117 -11 0
-37 -205 0
-183 -1 0
-41 -141 0
-15 -47 0
-71 -9 0
-45 -205 0
-36 -85 0
-37 -77 0
-172 -158 0
-186 -131 0
-159 -169 0
-45 -141 0
-89 -159 0
-95 -170 0
-97 -101 0
-171 -34 0
-99 -125 0
-91 -205 0
-186 -31 0
-15 -90 0
-117 -16 0
-32 -146 0
-167 -145 0
-196 -63 0
-91 -142 0
-13 -117 0
-202 -7 0
-40 -169 0
-180 -85 0
-1 -142 0
-8 -47 0
-97 -168 0
-99 -210 0
-156 -46 0
-172 -146 0
-74 -171 0
-189 -69 0
-128 -67 0
-41 -82 0
-141 -17 0
-10 -17 0
-9 -63 0
-96 -101 0
-91 -146 0
-196 -120 0
-145 -93 0
-1 -140 0
-188 -169 0
-129 -157 0
-186 -1 0
-41 -46 0
-34 -77 0
-8 -131 0
-192 -7 0
-158 -141 0
-39 -4 0
-6 -129 0
-9 -31 0
-188 -165 0
-196 -46 0
-95 -16 0
-41 -211 0
-129 -91 0
-119 -3 0
-213 -153 0
-171 -130 0
-91 -158 0
-35 -82 0
-43 -82 0
-199 -86 0
-183 -131 0
-97 -211 0
-165 -153 0
-129 -98 0
-38 -210 0
-3 -160 0
-2 -130 0
-98 -150 0
-45 -86 0
-142 -32 0
-117 -9 0
-186 -86 0
-99 -164 0
-10 -176 0
-118 -31 0
-95 -80 0
-39 -82 0
-183 -69 0
-44 -130 0
-12 -205 0
-93 -182 0
-63 -210 0
-159 -140 0
-15 -129 0
-13 -63 0
-197 -89 0
-98 -152 0
-98 -169 0
-95 -168 0
-174 -47 0
-40 -81 0
-173 -85 0
-41 -81 0
-32 -205 0
-6 -47 0
-39 -77 0
-16 -98 0
-129 -154 0
-96 -161 0
-184 -46 0
-122 -174 0
-10 -205 0
-179 -130 0
-95 -81 0
-146 -143 0
-42 -211 0
-185 -89 0
-6 -31 0
-97 -140 0
-41 -29 0
-14 -90 0
-98 -80 0
-119 -6 0
-67 -163 0
-154 -3 0
-195 -89 0
-97 -169 0
-130 -17 0
-73 -172 0
-128 -89 0
-93 -160 0
-173 -158 0
-15 -119 0
-171 -101 0
-174 -157 0
-35 -141 0
-169 -209 0
-6 -171 0
-118 -3 0
-131 -17 0
-171 -62 0
-181 -1 0
-66 -171 0
-96 -119 0
-36 -80 0
-39 -160 0
-40 -129 0
-89 -101 0
-158 -140 0
-89 -141 0
-71 -11 0
-72 -172 0
-96 -210 0
-189 -3 0
-2 -141 0
-42 -81 0
-187 -92 0
-97 -130 0
-42 -172 0
-169 -82 0
-73 -98 0
-34 -91 0
-178 -85 0
-203 -213 0
-94 -156 0
-200 -86 0
-143 -98 0
-40 -71 0
-155 -7 0
-169 -143 0
-187 -131 0
-188 -89 0
-74 -173 0
-41 -160 0
-173 -47 0
-34 -146 0
-174 -101 0
-94 -158 0
-97 -143 0
-14 -131 0
-98 -211 0
-89 -161 0
-97 -16 0
-180 -169 0
-98 -205 0
-97 -156 0
-35 -211 0
-72 -169 0
-89 -124 0
-88 -161 0
-179 -169 0
-44 -46 0
-34 -76 0
-36 -17 0
-95 -34 0
-45 -85 0
-39 -17 0
-9 -213 0
-124 -3 0
-121 -209 0
-118 -94 0
-35 -160 0
-185 -171 0
-92 -164 0
-14 -129 0
-122 -89 0
-150 -7 0
-89 -176 0
-186 -119 0
-165 -148 0
-209 -143 0
-187 -1 0
-121 -3 0
-189 -7 0
-96 -77 0
-141 -98 0
-34 -82 0
-98 -164 0
-153 -140 0
-95 -77 0
-119 -91 0
-181 -131 0
-95 -210 0
-35 -210 0
-169 -213 0
-180 -86 0
-187 -3 0
-167 -150 0
-94 -170 0
-7 -172 0
-99 -81 0
-94 -164 0
-44 -120 0
-92 -146 0
-13 -17 0
-41 -170 0
-181 -82 0
-98 -210 0
-183 -120 0
-145 -165 0
-159 -7 0
-151 -88 0
-167 -73 0
-35 -101 0
-92 -152 0
-10 -47 0
-121 -101 0
-196 -82 0
-74 -165 0
-44 -77 0
-181 -86 0
-203 -169 0
-94 -159 0
-148 -46 0
-171 -151 0
-36 -172 0
-92 -101 0
-73 -174 0
-154 -213 0
-41 -17 0
-72 -173 0
-35 -17 0
-95 -140 0
-196 -3 0
-13 -191 0
-35 -80 0
-202 -46 0
-150 -82 0
-2 -140 0
-131 -92 0
-93 -4 0
-45 -4 0
-126 -165 0
-173 -101 0
-95 -190 0
-179 -71 0
-149 -169 0
-188 -7 0
-93 -51 0
-142 -88 0
-95 -131 0
-129 -31 0
-96 -34 0
-122 -171 0
-199 -89 0
-117 -12 0
-155 -46 0
-36 -4 0
-88 -101 0
-92 -160 0
-118 -89 0
-204 -129 0
-89 -34 0
-91 -81 0
-173 -141 0
-183 -129 0
-11 -213 0
-196 -89 0
-97 -141 0
-99 -211 0
-32 -4 0
-36 -92 0
-195 -3 0
-94 -142 0
-149 -213 0
-189 -169 0
-40 -4 0
-188 -46 0
-89 -146 0
-97 -160 0
-125 -140 0
-44 -172 0
-203 -120 0
-42 -86 0
-141 -32 0
-88 -160 0
-173 -81 0
-180 -120 0
-116 -93 0
-187 -129 0
-7 -32 0
-35 -29 0
-39 -210 0
-34 -46 0
-151 -174 0
-165 -88 0
-150 -88 0
-172 -34 0
-96 -17 0
-167 -47 0
-40 -213 0
-174 -209 0
-186 -130 0
-153 -141 0
-9 -171 0
-42 -129 0
-11 -171 0
-15 -82 0
-34 -101 0
-69 -93 0
-189 -89 0
-167 -126 0
-11 -146 0
-38 -164 0
-13 -145 0
-94 -151 0
-44 -80 0
-34 -98 0
-181 -165 0
-13 -171 0
-129 -73 0
-10 -213 0
-45 -206 0
-12 -90 0
-95 -209 0
-191 -93 0
-97 -151 0
-169 -32 0
-174 -130 0
-93 -80 0
-35 -86 0
-189 -53 0
-35 -174 0
-167 -74 0
-88 -168 0
-180 -4 0
-34 -88 0
-172 -89 0
-156 -93 0
-184 -129 0
-153 -82 0
-94 -46 0
-32 -80 0
-35 -77 0
-44 -142 0
-45 -29 0
-34 -205 0
-118 -67 0
-167 -82 0
-91 -168 0
-13 -82 0
-172 -29 0
-45 -17 0
-152 -7 0
-3 -152 0
-156 -131 0
-34 -213 0
-190 -9 0
-37 -146 0
-146 -140 0
-145 -130 0
-37 -85 0
-94 -73 0
-1 -141 0
-12 -47 0
-7 -148 0
-190 -11 0
-184 -7 0
-96 -4 0
-145 -131 0
-34 -86 0
-6 -146 0
-95 -205 0
-99 -141 0
-97 -159 0
-119 -8 0
-44 -101 0
-38 -213 0
-35 -81 0
-16 -11 0
-156 -143 0
-186 -171 0
-206 -32 0
-95 -130 0
-186 -160 0
-97 -34 0
-10 -53 0
-97 -81 0
-94 -124 0
-116 -11 0
-121 -17 0
-36 -130 0
-181 -31 0
-37 -117 0
-94 -160 0
-192 -89 0
-11 -63 0
-44 -170 0
-41 -129 0
-34 -80 0
-7 -173 0
-40 -80 0
-89 -17 0
-16 -8 0
-185 -69 0
-192 -63 0
-14 -176 0
-7 -131 0
-195 -46 0
-209 -131 0
-96 -158 0
-45 -120 0
-184 -3 0
-95 -159 0
-184 -119 0
-37 -71 0
-189 -131 0
-39 -142 0
-189 -117 0
-34 -145 0
-213 -150 0
-97 -142 0
-167 -85 0
-93 -165 0
-37 -141 0
-94 -210 0
-187 -119 0
-89 -152 0
-153 -89 0
-178 -129 0
-129 -200 0
-9 -146 0
-159 -141 0
-173 -1 0
-43 -85 0
-184 -92 0
-92 -145 0
-98 -160 0
-36 -46 0
-94 -140 0
-117 -3 0
-41 -120 0
-171 -157 0
-165 -47 0
-91 -141 0
-36 -51 0
-40 -85 0
-14 -17 0
-116 -88 0
-188 -120 0
-89 -205 0
-120 -178 0
-187 -71 0
-159 -130 0
-3 -168 0
-202 -89 0
-172 -81 0
-183 -53 0
-2 -142 0
-16 -32 0
-36 -29 0
-159 -131 0
-34 -141 0
-36 -82 0
-35 -213 0
-180 -7 0
-96 -73 0
-99 -182 0
-39 -213 0
-173 -157 0
-156 -213 0
-179 -31 0
-89 -182 0
-66 -98 0
-32 -92 0
-99 -4 0
-8 -17 0
-12 -31 0
-44 -47 0
-96 -130 0
-17 -12 0
-209 -130 0
-45 -164 0
-152 -93 0
-179 -7 0
-172 -37 0
-97 -51 0
-35 -46 0
-88 -209 0
-183 -89 0
-11 -17 0
-99 -191 0
-165 -209 0
-173 -148 0
-41 -86 0
-63 -46 0
-11 -31 0
-145 -98 0
-45 -82 0
-16 -88 0
-156 -142 0
-92 -140 0
-37 -101 0
-6 -145 0
-140 -17 0
-159 -88 0
-89 -127 0
-187 -165 0
-178 -160 0
-43 -169 0
-88 -210 0
-91 -145 0
-97 -80 0
-42 -170 0
-15 -131 0
-43 -17 0
-41 -85 0
-43 -205 0
-150 -92 0
-99 -143 0
-158 -169 0
-171 -146 0
-7 -149 0
-148 -89 0
-10 -82 0
-45 -169 0
-154 -82 0
-99 -190 0
-89 -77 0
-41 -101 0
-118 -17 0
-157 -46 0
-89 -209 0
-174 -213 0
-186 -3 0
-185 -119 0
-9 -53 0
-186 -53 0
-43 -76 0
-7 -130 0
-99 -140 0
-6 -90 0
-94 -161 0
-38 -81 0
-205 -163 0
-201 -7 0
-89 -4 0
-94 -169 0
-41 -4 0
-186 -82 0
-155 -3 0
-37 -169 0
-158 -131 0
-42 -76 0
-91 -150 0
-91 -143 0
-3 -170 0
-97 -150 0
-99 -205 0
-174 -85 0
-99 -145 0
-38 -85 0
-172 -155 0
-41 -130 0
-92 -156 0
-179 -89 0
-97 -119 0
-44 -213 0
-13 -90 0
-96 -141 0
-92 -17 0
-146 -130 0
-129 -13 0
-36 -141 0
-89 -170 0
-169 -3 0
-37 -130 0
-178 -46 0
-43 -172 0
-37 -80 0
-172 -148 0
-11 -53 0
-183 -31 0
-159 -98 0
-179 -86 0
-43 -71 0
-16 -6 0
-9 -82 0
-2 -131 0
-171 -145 0
-96 -156 0
-128 -31 0
-40 -142 0
-97 -17 0
-181 -171 0
-9 -47 0
-1 -131 0
-44 -17 0
-45 -71 0
-51 -32 0
-174 -153 0
-3 -163 0
-34 -29 0
-89 -129 0
-8 -205 0
-42 -141 0
-181 -120 0
-63 -10 0
-142 -98 0
-41 -146 0
-190 -6 0
-45 -81 0
-6 -213 0
-91 -4 0
-41 -77 0
-195 -120 0
-10 -142 0
-179 -131 0
-96 -150 0
-14 -146 0
-45 -130 0
-188 -82 0
-129 -155 0
-96 -170 0
-92 -210 0
-196 -213 0
-183 -85 0
-95 -51 0
-184 -71 0
-94 -119 0
-179 -119 0
-185 -53 0
-148 -82 0
-149 -3 0
-3 -164 0
-172 -41 0
-32 -164 0
-42 -142 0
-39 -81 0
-43 -7 0
-180 -129 0
-186 -129 0
-91 -151 0
-122 -165 0
-6 -131 0
-179 -129 0
-185 -85 0
-180 -82 0
-167 -130 0
-97 -146 0
-94 -131 0
-157 -131 0
-197 -129 0
-34 -17 0
-6 -53 0
-115 -169 0
-99 -168 0
-10 -171 0
-69 -145 0
-199 -7 0
-88 -130 0
-186 -117 0
-183 -92 0
-201 -46 0
-167 -101 0
-44 -211 0
-95 -4 0
-39 -29 0
-184 -131 0
-187 -171 0
-15 -205 0
-40 -17 0
-43 -120 0
-93 -142 0
-34 -210 0
-73 -121 0
-43 -92 0
-189 -31 0
-179 -4 0
-39 -80 0
-172 -47 0
-96 -46 0
-36 -77 0
-37 -7 0
-41 -205 0
-35 -164 0
-97 -145 0
-116 -9 0
-15 -146 0
-169 -153 0
-99 -146 0
-158 -93 0
-91 -211 0
-1 -169 0
-40 -29 0
-167 -151 0
-38 -77 0
-119 -11 0
-81 -165 0
-89 -140 0
-209 -140 0
-12 -213 0
-43 -160 0
-40 -146 0
-40 -205 0
-197 -82 0
-181 -53 0
-92 -81 0
-99 -156 0
-99 -209 0
-183 -46 0
-188 -117 0
-174 -1 0
-164 -17 0
-204 -7 0
-16 -10 0
-39 -141 0
-97 -161 0
-35 -4 0
-184 -69 0
-94 -81 0
-186 -169 0
-44 -164 0
-184 -1 0
-37 -47 0
-180 -53 0
-188 -69 0
-89 -169 0
-93 -170 0
-94 -211 0
-67 -168 0
-88 -170 0
-143 -17 0
-181 -119 0
-192 -82 0
-192 -46 0
-169 -29 0
-94 -130 0
-192 -86 0
-34 -160 0
-34 -164 0
-40 -7 0
-189 -1 0
-129 -3 0
-41 -206 0
-40 -77 0
-99 -151 0
-167 -153 0
-156 -82 0
-169 -85 0
-167 -148 0
-180 -89 0
-88 -164 0
-42 -4 0
-165 -131 0
-187 -53 0
-96 -7 0
-92 -158 0
-184 -4 0
-14 -145 0
-92 -143 0
-178 -4 0
-171 -1 0
-184 -117 0
-96 -145 0
-157 -86 0
-179 -85 0
-15 -190 0
